p cnf 14 53
1 2 0
-1 -2 0
3 4 0
-3 -4 0
5 6 0
-5 -6 0
7 8 0
-7 -8 0
9 10 0
-9 -10 0
11 12 0
-11 -12 0
13 14 0
-13 -14 0
10 0
-1 -3 -5 0
-2 -4 -6 0
-1 -5 -7 0
-2 -6 -8 0
-1 -7 -9 0
-2 -8 -10 0
-1 -9 -11 0
-2 -10 -12 0
-1 -11 -13 0
-2 -12 -14 0
-3 -5 -9 0
-4 -6 -10 0
-3 -7 -11 0
-4 -8 -12 0
-3 -9 -13 0
-4 -10 -14 0
-5 -7 -13 0
-6 -8 -14 0
-5 -11 0
-6 -12 0
-1 -13 -5 0
-3 -11 -5 0
-3 -13 -7 0
-5 -9 -5 0
-5 -11 -7 0
-5 -13 -9 0
-7 -5 0
-7 -9 -7 0
-7 -11 -9 0
-7 -13 -11 0
-9 -9 0
-9 -11 -11 0
-9 -13 -13 0
-11 -13 0
-11 -13 -5 0
-13 -7 0
-12 -14 -6 0
-14 -8 0
